submitit INFO (2023-04-30 19:21:33,004) - Starting with JobEnvironment(job_id=27531, hostname=cpunode2, local_rank=1(5), node=0(1), global_rank=1(5))
submitit INFO (2023-04-30 19:21:33,004) - Loading pickle: /h/30/pashootan/Matrix-Mult-CP/src/../logs/2x2x2_6_Apr30_19:21:31/27531_submitted.pkl
 ! --------------------------------------------------- CP Optimizer 22.1.1.0 --
 ! Satisfiability problem - 72 variables, 237 constraints
 ! TimeLimit            = 7200
 ! Workers              = 8
 ! LogPeriod            = 10000000
 ! RandomSeed           = 4462
 ! Initial process time : 0.02s (0.02s extraction + 0.00s propagation)
 !  . Log search space  : 107.1 (before), 107.1 (after)
 !  . Memory usage      : 575.6 kB (before), 575.6 kB (after)
 ! Using parallel search with 8 workers.
 ! ----------------------------------------------------------------------------
 !               Branches  Non-fixed    W       Branch decision
                   10000k          6    1   F     1 != U3_1
                   10000k          6    6   F    -1 != V0_3
                   10000k          6    2        -1 != V4_0
                   10000k          6    4   F     0 != W3_0
                   10000k          6    5   F    -1 != V3_0
                   10000k          7    7        -1 != W5_3
                   10000k          7    8        -1 != U4_3
                   10000k          9    3   F     0  = V4_0
                   20000k          6    1   F     1  = V2_0
                   20000k          6    2   F     0  = V0_2
                   20000k          6    6        -1  = W3_1
                   20000k          6    4   F    -1  = W3_2
                   20000k          6    5         0 != V3_3
                   20000k          6    3   F    -1  = V5_0
                   20000k          8    7   F     1 != V4_0
                   20000k          7    8   F     1  = U2_2
                   30000k          6    1   F     0 != U1_2
                   30000k          6    5        -1 != V5_3
                   30000k          6    2   F    -1 != V4_1
                   30000k          6    6         1 != V0_2
 ! Time = 365.17s, Average fail depth = 18, Memory usage = 143.4 MB
 !               Branches  Non-fixed    W       Branch decision
                   30000k          6    4   F     0  = V5_3
                   30000k          6    7        -1  = U1_1
                   30000k          7    3   F     0  = V1_1
                   30000k          7    8   F    -1 != V5_0
                   40000k          6    1   F    -1 != W4_1
                   40000k          6    2   F    -1  = U2_2
                   40000k          6    5   F    -1  = U2_2
                   40000k          6    6         1  = V1_1
                   40000k          6    4   F    -1  = V3_1
                   40000k          8    8   F    -1  = V0_2
                   40000k          9    7   F     1  = V0_0
                   40000k          8    3   F     1  = U0_2
 ! ----------------------------------------------------------------------------
 ! Search completed, model has no solution.
 ! ----------------------------------------------------------------------------
 ! Number of branches     : 341050857
 ! Number of fails        : 168208883
 ! Total memory usage     : 208.7 MB (208.7 MB CP Optimizer + 0.0 MB Concert)
 ! Time spent in solve    : 521.11s (521.10s engine + 0.02s extraction)
 ! Search speed (br. / s) : 654482.6
 ! ----------------------------------------------------------------------------
Infeasible
Saving stats to: /h/30/pashootan/Matrix-Mult-CP/logs/2x2x2_6_Apr30_19:21:31/27531_1_stats.csv
submitit INFO (2023-04-30 19:30:14,674) - Job completed successfully
